JulietBench/Juliet_Based_Patch_Bench/FFmpeg/CWE-189-Numeric-Errors/CVE_2011_4352_eef5c35b4352ec49ca41f6198bee8a976b1f81e5/Resultvp3_dequant_Snippet_patch2NEQ.smt2
; benchmark generated from python API
(set-info :status unknown)
(declare-fun rdi () (_ BitVec 64))
(declare-fun R () (_ BitVec 32))
(declare-fun rsi () (_ BitVec 64))
(assert
 (let ((?x6 ((_ extract 31 0) rdi)))
 (let ((?x86 (bvadd (_ bv3 32) ?x6)))
 (let (($x72 (and (distinct R ?x86) true)))
 (let ((?x8 ((_ extract 31 0) rsi)))
 (let ((?x18 ((_ extract 31 31) rsi)))
 (let ((?x21 (concat (concat (concat (concat (concat ?x18 ?x18) ?x18) ?x18) ?x18) ?x18)))
 (let ((?x26 (concat (concat (concat (concat (concat ?x21 ?x18) ?x18) ?x18) ?x18) ?x18)))
 (let ((?x34 (concat (concat (concat (concat (concat ?x26 ?x18) ?x18) ?x18) ?x18) ?x18)))
 (let ((?x42 (concat (concat (concat (concat (concat ?x34 ?x18) ?x18) ?x18) ?x18) ?x18)))
 (let ((?x47 (concat (concat (concat (concat (concat ?x42 ?x18) ?x18) ?x18) ?x18) ?x18)))
 (let ((?x52 (concat (concat (concat (concat (concat ?x47 ?x18) ?x18) ?x18) ?x18) ?x18)))
 (let ((?x54 (concat (concat ?x52 ?x18) ?x8)))
 (let ((?x55 (bvashr ?x54 (_ bv2 64))))
 (let ((?x56 ((_ extract 6 0) ?x55)))
 (let ((?x57 (concat (_ bv0 25) ?x56)))
 (let ((?x76 (bvadd (bvadd (_ bv1 32) ?x6) ?x57)))
 (let (($x69 (and (distinct R ?x76) true)))
 (let (($x82 (and $x69 $x72)))
 (let (($x64 (= R ?x86)))
 (let (($x80 (= R ?x76)))
 (let (($x88 (and $x80 $x64)))
 (let (($x74 (or $x88 $x82)))
 (not $x74))))))))))))))))))))))))
(check-sat)
